This is Ipopt version 3.10.1, running with linear solver mumps.

Number of nonzeros in equality constraint Jacobian...:      141
Number of nonzeros in inequality constraint Jacobian.:        0
Number of nonzeros in Lagrangian Hessian.............:     2019

Total number of variables............................:       72
                     variables with only lower bounds:        0
                variables with lower and upper bounds:       72
                     variables with only upper bounds:        0
Total number of equality constraints.................:       47
Total number of inequality constraints...............:        0
        inequality constraints with only lower bounds:        0
   inequality constraints with lower and upper bounds:        0
        inequality constraints with only upper bounds:        0

iter    objective    inf_pr   inf_du lg(mu)  ||d||  lg(rg) alpha_du alpha_pr  ls
   0 -8.4428504e-04 8.35e-11 2.71e-03  -1.0 0.00e+00    -  0.00e+00 0.00e+00   0
   1 -8.6509691e-04 3.33e-16 1.44e-04  -1.7 1.83e-02    -  9.97e-01 1.00e+00f  1
   2 -9.1430482e-04 2.22e-16 1.24e-05  -2.5 4.22e-02    -  1.00e+00 1.00e+00f  1
   3 -1.0474910e-03 9.45e-12 7.79e-05  -3.8 3.49e-02    -  9.86e-01 1.00e+00f  1
   4 -1.5968798e-03 5.93e-13 8.35e-04  -5.7 6.39e-02  -2.0 8.76e-01 1.00e+00f  1
   5 -2.1269649e-03 3.29e-13 1.23e-03  -5.7 3.88e-02  -1.6 1.00e+00 1.00e+00f  1
   6 -3.0894451e-03 9.47e-14 2.02e-02  -5.7 7.26e-01  -2.1 1.59e-01 7.12e-01h  1
   7 -3.0704727e-03 7.54e-14 1.63e-02  -5.7 4.20e-01  -1.6 1.00e+00 2.04e-01f  3
   8 -4.5337493e-03 4.68e-12 2.98e-03  -5.7 4.17e-02  -1.2 1.00e+00 1.00e+00f  1
   9 -2.8859288e-03 4.20e-12 2.52e-03  -5.7 4.66e-01  -1.7 5.18e-02 1.02e-01h  4
iter    objective    inf_pr   inf_du lg(mu)  ||d||  lg(rg) alpha_du alpha_pr  ls
  10 -4.5059788e-03 1.06e-12 3.15e-03  -5.7 4.82e-02  -1.3 1.00e+00 1.00e+00f  1
  11 -5.1434033e-03 4.37e-13 3.44e-03  -5.7 2.41e-02  -0.8 1.00e+00 5.89e-01f  1
  12 -5.7073356e-03 4.08e-13 6.52e-03  -5.7 1.63e-01  -1.3 1.00e+00 6.51e-02f  1
  13 -5.7039697e-03 4.08e-13 5.35e-03  -5.7 3.41e-01  -1.8 1.05e-01 2.44e-04f 13
  14 -5.6920992e-03 4.02e-13 4.68e-03  -5.7 7.14e+01  -1.4 4.32e-04 5.57e-06f 12
  15 -1.8529782e-03 1.11e-15 1.32e-02  -5.7 2.65e-01  -1.8 1.98e-01 1.00e+00h  1
  16 -1.8842308e-03 2.40e-13 1.23e-02  -5.7 3.20e-02  -1.4 1.00e+00 6.94e-02f  2
  17 -2.7438756e-03 1.51e-13 8.10e-03  -5.7 1.41e-01  -1.9 1.00e+00 3.70e-01f  1
  18 -4.0070984e-03 4.44e-16 1.94e-03  -5.7 5.13e-02  -1.5 1.00e+00 1.00e+00F  1
  19 -3.3757162e-03 2.22e-16 2.36e-02  -5.7 3.64e-01  -1.9 1.01e-01 9.73e-01h  1
iter    objective    inf_pr   inf_du lg(mu)  ||d||  lg(rg) alpha_du alpha_pr  ls
  20 -5.0314562e-03 2.22e-16 1.99e-02  -5.7 2.11e-01  -1.5 1.00e+00 3.20e-01f  1
  21 -5.1963687e-03 2.22e-16 1.73e-02  -5.7 5.26e-02  -1.1 1.00e+00 9.18e-02f  1
  22 -8.8855266e-03 1.48e-12 2.28e-02  -5.7 1.21e+00  -1.6 2.92e-01 5.22e-02f  1
  23 -1.6421126e-02 2.29e-13 1.12e-02  -5.7 1.08e-01  -1.1 1.00e+00 8.45e-01f  1
  24 -1.8480560e-02 1.54e-13 1.70e-02  -5.7 5.87e-02  -0.7 1.00e+00 3.28e-01f  1
  25 -2.0839869e-02 1.38e-13 3.49e-02  -5.7 2.29e-01  -1.2 6.16e-01 1.05e-01f  1
  26 -2.6767817e-02 3.33e-16 1.06e-02  -5.7 5.78e-02  -0.8 1.00e+00 1.00e+00f  1
  27 -2.7318983e-02 2.22e-16 3.67e-02  -5.7 4.02e-01  -1.2 4.39e-01 1.68e-02f  1
  28 -2.9387847e-02 2.22e-16 1.68e-02  -5.7 8.41e-02  -0.8 1.00e+00 2.64e-01f  1
  29 -3.1041372e-02 8.89e-13 5.17e-02  -5.7 5.79e-01  -1.3 4.90e-01 4.22e-02f  1
iter    objective    inf_pr   inf_du lg(mu)  ||d||  lg(rg) alpha_du alpha_pr  ls
  30 -3.5457460e-02 3.63e-12 1.37e-02  -5.7 1.09e-01  -0.9 1.00e+00 5.08e-01f  1
  31 -3.9769595e-02 3.63e-12 1.75e-02  -5.7 7.64e+01  -1.3 1.78e-03 1.73e-03f  1
  32 -4.9918668e-02 7.11e-12 1.73e-02  -5.7 1.25e-01  -0.9 1.00e+00 7.07e-01f  1
  33 -5.1867847e-02 5.50e-12 2.04e-02  -5.7 5.78e-02  -0.5 1.00e+00 2.26e-01f  1
  34 -5.4542363e-02 6.44e-12 7.49e-02  -5.7 2.05e-01  -1.0 1.00e+00 9.39e-02f  1
  35 -5.8630503e-02 2.90e-12 1.78e-02  -5.7 4.51e-02  -0.5 1.00e+00 5.50e-01f  1
  36 -6.1467820e-02 4.08e-12 6.32e-02  -5.7 3.82e-01  -1.0 6.73e-01 6.42e-02f  1
  37 -6.3162072e-02 3.38e-12 2.53e-02  -5.7 6.33e-02  -0.6 1.00e+00 1.70e-01f  1
  38 -6.7282016e-02 4.87e-12 5.06e-02  -5.7 1.56e-01  -1.1 1.00e+00 1.89e-01f  1
  39 -6.8177231e-02 5.18e-12 2.86e-02  -5.7 5.65e-02  -0.6 1.00e+00 1.58e-01f  1
iter    objective    inf_pr   inf_du lg(mu)  ||d||  lg(rg) alpha_du alpha_pr  ls
  40 -7.8955042e-02 1.53e-12 1.32e-02  -5.7 1.73e-01  -1.1 3.49e-01 7.04e-01f  1
  41 -8.6491880e-02 8.88e-16 2.54e-02  -5.7 7.36e-02  -0.7 2.62e-01 1.00e+00f  1
  42 -9.0462342e-02 2.22e-16 2.04e-02  -5.7 3.69e-02  -0.3 1.00e+00 1.00e+00f  1
  43 -9.3263676e-02 1.40e-12 2.24e-02  -5.7 2.01e-01  -0.7 1.25e-01 1.12e-01f  1
  44 -9.3255207e-02 1.40e-12 4.14e-02  -5.7 3.11e-01  -1.2 8.26e-01 3.98e-04f  9
  45 -9.6824579e-02 3.31e-12 3.22e-02  -5.7 1.97e-01  -0.8 2.40e-01 1.36e-01f  1
  46 -9.6817520e-02 3.31e-12 4.37e-02  -5.7 2.99e-01  -1.3 5.67e-01 2.99e-04f 10
  47 -1.3050478e-01 2.18e-12 7.21e-02  -5.7 4.53e-01  -0.8 1.50e-01 3.42e-01f  1
  48 -1.3049619e-01 2.18e-12 9.30e-02  -5.7 2.88e-01  -1.3 5.34e-01 1.21e-04f 13
  49 -1.0268441e-01 1.65e-12 6.97e-02  -5.7 5.11e-01  -0.9 1.04e-01 2.42e-01h  1
iter    objective    inf_pr   inf_du lg(mu)  ||d||  lg(rg) alpha_du alpha_pr  ls
  50 -1.0378906e-01 1.53e-12 4.69e-02  -5.7 8.38e-02  -0.5 1.00e+00 7.47e-02f  1
  51 -1.0520361e-01 1.05e-12 3.38e-02  -5.7 2.36e-02  -0.0 2.23e-01 3.13e-01f  1
  52 -1.0608105e-01 1.71e-12 5.22e-02  -5.7 1.16e-01  -0.5 8.48e-01 4.20e-02f  3
  53 -9.7648501e-02 1.56e-12 4.93e-02  -5.7 6.99e-01  -1.0 2.13e-01 9.19e-02h  1
  54 -9.7674138e-02 1.66e-12 4.93e-02  -5.7 2.36e-01  -0.6 1.03e-04 1.51e-03f  8
  55 -9.7607810e-02 1.66e-12 5.98e-02  -5.7 1.92e+00  -1.0 1.61e-01 3.52e-04h  1
  56 -9.7601924e-02 1.66e-12 6.66e-02  -5.7 4.16e-01  -1.5 4.13e-01 2.20e-04f 11
  57 -9.7602043e-02 1.66e-12 6.44e-02  -5.7 2.04e+01  -1.1 3.91e-04 6.03e-08f 10
  58 -9.7741129e-02 1.56e-12 5.04e-02  -5.7 1.04e-01  -0.7 2.08e-01 1.09e-02f  7
  59 -9.7779938e-02 1.54e-12 5.00e-02  -5.7 2.79e-02  -0.2 7.32e-03 9.25e-03f  1
iter    objective    inf_pr   inf_du lg(mu)  ||d||  lg(rg) alpha_du alpha_pr  ls
  60 -1.1846280e-01 2.22e-16 9.06e-02  -5.7 1.30e-01  -0.7 2.04e-01 1.00e+00f  1
  61 -1.1593229e-01 2.22e-16 1.20e-01  -5.7 6.98e-01  -1.2 2.61e-01 2.39e-02h  2
  62 -1.1593141e-01 2.22e-16 1.29e-01  -5.7 4.08e-01  -1.7 5.94e-01 1.74e-05h 11
  63 -1.2652950e-01 2.22e-16 9.99e-02  -5.7 7.78e-02  -0.3 3.36e-01 6.90e-01f  1
  64 -1.3779472e-01 6.99e-12 1.22e-01  -5.7 1.58e+00  -0.8 3.43e-03 3.21e-02f  1
  65 -1.5106320e-01 4.26e-11 2.40e-01  -5.7 1.13e-01  -0.4 1.06e-01 8.60e-01f  1
  66 -1.5105846e-01 4.26e-11 2.75e-01  -5.7 4.62e-01  -0.9 2.11e-01 2.45e-05f 13
  67 -1.6060646e-01 3.87e-11 2.69e-01  -5.7 4.96e-01  -0.5 1.17e-01 4.69e-02f  1
  68 -1.6060281e-01 3.87e-11 2.69e-01  -5.7 3.14e-01  -0.9 3.39e-01 2.47e-05f 14
  69 -1.6060201e-01 3.87e-11 2.69e-01  -5.7 3.75e-01  -1.4 1.18e-01 9.67e-06f 15
iter    objective    inf_pr   inf_du lg(mu)  ||d||  lg(rg) alpha_du alpha_pr  ls
  70 -1.3653231e-01 3.05e-11 2.14e-01  -5.7 3.00e-01  -1.0 3.26e-02 2.12e-01h  1
  71 -1.3652700e-01 3.05e-11 2.14e-01  -5.7 5.46e-01  -1.5 3.40e-03 5.08e-05f 11
  72 -1.3764935e-01 2.85e-11 2.03e-01  -5.7 7.08e-02  -0.1 2.30e-03 6.29e-02f  1
  73 -1.4022320e-01 2.81e-11 2.01e-01  -5.7 6.47e-01  -0.6 1.24e-03 1.38e-02f  1
  74 -1.4273536e-01 2.60e-11 1.90e-01  -5.7 1.03e-01  -0.2 8.40e-01 7.59e-02f  1
  75 -1.8297225e-01 2.59e-11 2.13e-01  -5.7 1.61e+01  -0.7 8.26e-04 5.82e-03f  1
  76 -1.8340278e-01 2.48e-11 2.10e-01  -5.7 1.31e-01  -0.2 1.51e-03 1.18e-02f  1
  77 -1.8379828e-01 2.39e-11 2.07e-01  -5.7 4.96e-02   0.2 1.56e-01 1.94e-02f  1
  78 -1.8905169e-01 2.17e-11 1.95e-01  -5.7 1.15e-01  -0.3 6.73e-02 9.18e-02f  1
  79 -1.8904499e-01 2.17e-11 2.04e-01  -5.7 3.11e-01    -  4.01e-01 7.17e-05f 13
iter    objective    inf_pr   inf_du lg(mu)  ||d||  lg(rg) alpha_du alpha_pr  ls
  80 -1.9787378e-01 2.14e-11 1.73e-01  -5.7 5.97e+00  -0.8 1.52e-02 3.79e-03f  1
  81 -1.9786912e-01 2.14e-11 1.59e-01  -5.7 3.08e-01    -  5.26e-01 4.51e-05f 14
  82 -1.9786579e-01 2.14e-11 2.26e-01  -5.7 4.07e-01  -1.2 3.97e-02 2.14e-05f 13
  83 -1.6431047e-01 1.40e-11 2.38e-01  -5.7 3.27e-01  -1.7 1.36e-01 3.48e-01h  1
  84 -1.6838700e-01 1.37e-11 2.44e-01  -5.7 5.97e-01  -1.3 2.42e-05 2.05e-02f  1
  85 -1.6860082e-01 9.98e-12 2.40e-01  -5.7 3.23e+00  -0.9 2.41e-04 2.59e-04f  2
  86 -1.7631382e-01 8.22e-12 2.96e-01  -5.7 1.42e-01  -0.4 1.00e+00 1.77e-01f  1
  87 -1.8413842e-01 1.55e-11 1.78e-01  -5.7 4.24e-02  -0.0 4.23e-01 5.28e-01f  1
  88 -3.2377489e-01 2.22e-16 1.64e-01  -5.7 2.42e-01  -0.5 2.38e-01 1.00e+00f  1
  89 -1.7231452e-01 2.22e-16 1.00e-01  -5.7 2.41e-01    -  5.24e-01 1.00e+00h  1
iter    objective    inf_pr   inf_du lg(mu)  ||d||  lg(rg) alpha_du alpha_pr  ls
  90 -1.6197272e-01 2.22e-16 1.23e-01  -5.7 3.50e-01    -  6.40e-01 1.50e-01h  1
  91 -1.6694373e-01 2.22e-16 1.19e-01  -5.7 2.27e-01  -1.0 2.44e-04 6.78e-02f  3
  92 -1.6615027e-01 2.22e-16 1.18e-01  -5.7 4.17e-01  -1.4 7.90e-03 7.90e-03s 15
Restoration phase is called at point that is almost feasible,
  with constraint violation 1.887379e-15. Abort.

Number of Iterations....: 92

                                   (scaled)                 (unscaled)
Objective...............:  -1.6615027147382058e-01   -1.6615027147382058e-01
Dual infeasibility......:   1.1784790320415564e-01    1.1784790320415564e-01
Constraint violation....:   2.2204460492503131e-16    2.2204460492503131e-16
Complementarity.........:   2.1714344946873825e-06    2.1714344946873825e-06
Overall NLP error.......:   1.1784790320415564e-01    1.1784790320415564e-01


Number of objective function evaluations             = 321
Number of objective gradient evaluations             = 94
Number of equality constraint evaluations            = 321
Number of inequality constraint evaluations          = 0
Number of equality constraint Jacobian evaluations   = 1
Number of inequality constraint Jacobian evaluations = 0
Number of Lagrangian Hessian evaluations             = 93
Total CPU secs in IPOPT (w/o function evaluations)   =      0.170
Total CPU secs in NLP function evaluations           =      2.180

EXIT: Restoration Failed!
